(set-logic QF_NRA)
(declare-fun y1 () Real)
(declare-fun y12 () Real)
(declare-fun y23 () Real)
(declare-fun y34 () Real)
(declare-fun y41 () Real)
(assert
(and
(and (<= (/ 25854 10000) y1) (<= y1 (/ 260175 100000)))(and (<= 2 y12) (<= y12 (/ 246350884418 100000000000)))(and (<= 2 y23) (<= y23 (/ 246350884418 100000000000)))(and (<= 2 y34) (<= y34 (/ 246350884418 100000000000)))(and (<= 2 y41) (<= y41 (/ 246350884418 100000000000)))(not (< (+ (* 2 (* (/ 314159265 100000000) (- (/ 053582 1000000)))) (+ (* (+ (/ 049452 1000000) (+ (- (/ 013853 1000000)) (+ (- (/ 020791 1000000)) (- (/ 013853 1000000))))) y1) (+ (* 2 (* (+ (- (/ 06302 100000)) (/ 06302 100000)) y12)) (+ (* 2 (* (+ (/ 06302 100000) (- (/ 06302 100000))) y23)) (+ (* 2 (* (+ (- (/ 06302 100000)) (- (/ 062897 1000000))) y34)) (+ (* 2 (* (+ (- (/ 062897 1000000)) (- (/ 06302 100000))) y41)) (+ (/ 475514 1000000) (+ (- (/ 389234 1000000)) (+ (/ 637132 1000000) (/ 618101 1000000)))))))))) 0)))
)
(check-sat)
(exit)
